(set-info :smt-lib-version 2.6)
(set-info :category "crafted")
(set-logic QF_FF)
(define-sort FF0 () (_ FiniteField 52435875175126190479447740508185965837690552500527637822603658699938581184513))
(declare-fun k () Bool)
(declare-fun a () Bool)
(declare-fun f () Bool)
(declare-fun i () Bool)
(declare-fun d () Bool)
(declare-fun c () Bool)
(declare-fun e () Bool)
(declare-fun l () Bool)
(declare-fun j () Bool)
(declare-fun h () Bool)
(declare-fun g () Bool)
(declare-fun b () Bool)
(declare-fun return_n9 () FF0)
(declare-fun k_n3 () FF0)
(declare-fun d_n6 () FF0)
(declare-fun l_n12 () FF0)
(declare-fun j_n5 () FF0)
(declare-fun h_n11 () FF0)
(declare-fun mul_n14 () FF0)
(declare-fun a_n1 () FF0)
(declare-fun b_n10 () FF0)
(declare-fun mul_n13 () FF0)
(declare-fun g_n0 () FF0)
(declare-fun is_zero_inv_n15 () FF0)
(declare-fun c_n8 () FF0)
(declare-fun e_n4 () FF0)
(declare-fun f_n2 () FF0)
(declare-fun i_n7 () FF0)
(assert 
  (let ((let0 k))
  (let ((let1 (not let0)))
  (let ((let2 a))
  (let ((let3 f))
  (let ((let4 i))
  (let ((let5 (ite let4 let3 let2)))
  (let ((let6 d))
  (let ((let7 c))
  (let ((let8 e))
  (let ((let9 (ite let8 let7 let6)))
  (let ((let10 l))
  (let ((let11 j))
  (let ((let12 h))
  (let ((let13 g))
  (let ((let14 b))
  (let ((let15 (and let14 let13 let12 let11 let10 let9 let5 let1)))
  (let ((let16 return_n9))
  (let ((let17 (as ff1 FF0)))
  (let ((let18 (= let17 let16)))
  (let ((let19 (= let18 let15)))
  (let ((let20 (as ff0 FF0)))
  (let ((let21 (= let20 let16)))
  (let ((let22 (or let18 let21)))
  (let ((let23 (and let22 let19)))
  (let ((let24 (as ff52435875175126190479447740508185965837690552500527637822603658699938581184512 FF0)))
  (let ((let25 (ff.mul let16 let24)))
  (let ((let26 (ff.add let25 let17)))
  (let ((let27 (as ff7 FF0)))
  (let ((let28 k_n3))
  (let ((let29 d_n6))
  (let ((let30 (ff.mul let29 let24)))
  (let ((let31 l_n12))
  (let ((let32 (ff.mul let31 let24)))
  (let ((let33 j_n5))
  (let ((let34 (ff.mul let33 let24)))
  (let ((let35 h_n11))
  (let ((let36 (ff.mul let35 let24)))
  (let ((let37 mul_n14))
  (let ((let38 (ff.mul let37 let24)))
  (let ((let39 a_n1))
  (let ((let40 (ff.mul let39 let24)))
  (let ((let41 b_n10))
  (let ((let42 (ff.mul let41 let24)))
  (let ((let43 mul_n13))
  (let ((let44 (ff.mul let43 let24)))
  (let ((let45 g_n0))
  (let ((let46 (ff.mul let45 let24)))
  (let ((let47 (ff.add let46 let44 let42 let40 let38 let36 let34 let32 let30 let28 let27)))
  (let ((let48 is_zero_inv_n15))
  (let ((let49 (ff.mul let48 let47)))
  (let ((let50 (= let49 let26)))
  (let ((let51 c_n8))
  (let ((let52 (ff.add let51 let30)))
  (let ((let53 e_n4))
  (let ((let54 (ff.mul let53 let52)))
  (let ((let55 (= let54 let37)))
  (let ((let56 f_n2))
  (let ((let57 (ff.add let40 let56)))
  (let ((let58 i_n7))
  (let ((let59 (ff.mul let58 let57)))
  (let ((let60 (= let59 let43)))
  (let ((let61 (and let60 let55 let50)))
  (let ((let62 (ite let13 let17 let20)))
  (let ((let63 (= let45 let62)))
  (let ((let64 (ite let4 let17 let20)))
  (let ((let65 (= let58 let64)))
  (let ((let66 (ite let0 let17 let20)))
  (let ((let67 (= let28 let66)))
  (let ((let68 (ite let3 let17 let20)))
  (let ((let69 (= let56 let68)))
  (let ((let70 (ite let6 let17 let20)))
  (let ((let71 (= let29 let70)))
  (let ((let72 (ite let11 let17 let20)))
  (let ((let73 (= let33 let72)))
  (let ((let74 (ite let14 let17 let20)))
  (let ((let75 (= let41 let74)))
  (let ((let76 (ite let2 let17 let20)))
  (let ((let77 (= let39 let76)))
  (let ((let78 (ite let8 let17 let20)))
  (let ((let79 (= let53 let78)))
  (let ((let80 (ite let10 let17 let20)))
  (let ((let81 (= let31 let80)))
  (let ((let82 (ite let12 let17 let20)))
  (let ((let83 (= let35 let82)))
  (let ((let84 (ite let7 let17 let20)))
  (let ((let85 (= let51 let84)))
  (let ((let86 (and let85 let83 let81 let79 let77 let75 let73 let71 let69 let67 let65 let63)))
  (let ((let87 (and let86 let61)))
  (let ((let88 (=> let87 let23)))
  (let ((let89 (not let88)))
  let89
))))))))))))))))))))))))))))))))))))))))))))))))))))))))))))))))))))))))))))))))))))))))))
)
(check-sat)
